50
1 0 2
2 0 11
2 1 5
4 1 20
4 2 3
5 0 8
5 2 6
5 3 20
5 4 10
6 0 18
6 3 19
6 4 7
7 2 15
7 4 2
7 5 19
7 6 17
8 0 11
8 1 14
8 2 19
8 3 15
8 4 12
8 7 10
9 0 14
9 1 9
9 3 18
9 4 13
9 5 4
9 6 4
9 7 17
9 8 16
10 1 4
10 3 17
10 4 14
10 5 3
10 6 19
10 8 13
10 9 10
11 0 7
11 1 19
11 5 17
11 9 6
11 10 17
12 0 5
12 1 10
12 2 2
12 4 12
12 6 11
12 7 2
12 9 20
12 11 17
13 0 10
13 2 15
13 3 20
13 4 15
13 6 6
13 7 3
13 8 7
13 9 8
13 10 11
13 11 13
13 12 1
14 4 16
14 5 3
14 7 15
14 8 8
14 9 5
14 10 14
14 13 12
15 1 3
15 2 2
15 3 8
15 5 11
15 7 18
15 8 7
15 9 13
15 10 9
15 11 9
16 2 8
16 5 9
16 6 19
16 7 6
16 9 18
16 10 19
16 11 13
16 12 15
16 14 6
17 0 1
17 2 5
17 3 8
17 4 3
17 8 12
17 9 1
17 11 15
17 13 4
17 14 4
17 16 19
18 1 17
18 2 12
18 3 20
18 4 11
18 6 13
18 7 19
18 9 6
18 10 19
18 11 14
19 0 14
19 1 7
19 2 2
19 4 8
19 5 12
19 6 1
19 7 11
19 8 10
19 9 19
19 10 20
19 14 10
19 15 14
19 16 1
20 0 15
20 1 2
20 2 5
20 3 18
20 4 20
20 5 5
20 9 5
20 10 11
20 16 17
20 17 1
20 18 10
20 19 14
21 1 15
21 2 3
21 4 6
21 5 4
21 6 15
21 8 1
21 11 8
21 12 6
21 13 16
21 14 5
21 15 18
21 16 4
21 18 1
21 20 7
22 1 16
22 3 13
22 4 15
22 7 9
22 9 10
22 11 19
22 12 16
22 13 6
22 15 13
22 16 9
22 20 12
22 21 3
23 1 18
23 6 3
23 9 10
23 10 16
23 14 9
23 16 15
23 17 10
23 19 2
23 20 14
23 21 10
23 22 3
24 0 5
24 1 17
24 3 5
24 4 13
24 9 3
24 11 2
24 12 15
24 14 1
24 16 3
24 17 12
24 18 13
24 19 13
24 20 20
24 22 9
25 1 17
25 2 13
25 3 11
25 5 9
25 6 2
25 8 10
25 10 6
25 12 2
25 14 7
25 15 11
25 16 8
25 20 7
25 21 1
25 23 18
25 24 5
26 2 13
26 3 6
26 5 1
26 6 17
26 8 16
26 9 5
26 10 11
26 11 1
26 12 9
26 14 7
26 15 4
26 17 9
26 23 7
27 2 11
27 4 14
27 5 6
27 8 18
27 9 16
27 10 9
27 13 13
27 17 15
27 18 19
27 19 17
27 20 8
27 21 1
27 22 13
27 23 12
27 24 12
27 26 6
28 0 15
28 3 20
28 4 13
28 6 5
28 7 13
28 9 1
28 10 10
28 13 7
28 16 10
28 19 20
28 22 11
28 23 5
28 26 13
28 27 9
29 1 10
29 2 3
29 3 8
29 4 9
29 5 5
29 8 2
29 12 7
29 15 13
29 16 8
29 17 18
29 18 12
29 19 16
29 20 1
29 22 12
29 24 1
29 27 9
29 28 3
30 2 5
30 4 14
30 7 3
30 8 19
30 9 8
30 10 20
30 13 10
30 14 11
30 15 6
30 16 9
30 19 12
30 20 11
30 22 12
30 24 7
30 26 10
30 27 3
30 28 18
31 1 14
31 2 8
31 3 3
31 10 10
31 13 2
31 14 12
31 15 16
31 19 5
31 20 1
31 22 17
31 23 10
31 24 10
31 25 20
31 26 1
31 28 17
31 30 7
32 9 12
32 10 19
32 12 3
32 14 5
32 15 10
32 19 13
32 23 4
32 26 14
32 27 14
32 28 10
32 29 20
32 30 6
33 0 14
33 1 12
33 3 16
33 5 5
33 6 20
33 7 10
33 8 1
33 10 5
33 11 4
33 12 2
33 14 1
33 15 17
33 18 19
33 20 7
33 22 16
33 25 6
33 26 19
33 27 14
33 29 13
33 30 16
33 31 13
33 32 10
34 0 11
34 5 9
34 6 13
34 7 4
34 8 15
34 9 17
34 15 1
34 16 2
34 17 5
34 19 5
34 20 3
34 21 2
34 22 17
34 23 1
34 24 20
34 25 8
34 26 12
34 27 5
34 28 15
34 29 4
34 31 5
34 32 2
35 0 19
35 1 13
35 6 9
35 7 6
35 8 7
35 10 16
35 11 1
35 14 15
35 15 7
35 16 19
35 18 10
35 19 7
35 20 11
35 21 7
35 22 13
35 23 17
35 24 17
35 25 1
35 28 8
35 29 19
35 30 10
35 31 16
35 33 6
35 34 20
36 1 1
36 2 19
36 4 17
36 5 2
36 6 12
36 10 20
36 12 20
36 13 13
36 15 12
36 16 17
36 20 11
36 22 12
36 23 17
36 27 1
36 29 6
36 30 6
36 31 8
36 32 20
37 1 14
37 3 18
37 4 8
37 5 20
37 17 1
37 23 2
37 24 15
37 27 17
37 28 13
37 32 14
37 33 7
37 34 18
37 35 16
38 0 2
38 1 9
38 3 15
38 6 16
38 11 20
38 12 20
38 13 5
38 15 5
38 17 2
38 18 12
38 19 1
38 20 10
38 22 8
38 23 17
38 25 12
38 27 15
38 29 8
38 30 13
38 32 5
38 37 11
39 1 10
39 2 18
39 3 17
39 5 10
39 6 4
39 7 13
39 11 13
39 12 11
39 14 10
39 15 19
39 17 12
39 21 2
39 22 6
39 23 4
39 24 1
39 26 7
39 27 9
39 28 12
39 29 11
39 31 20
39 34 11
39 37 18
39 38 17
40 0 10
40 2 15
40 3 7
40 4 10
40 7 10
40 10 2
40 13 17
40 15 8
40 16 17
40 18 5
40 19 16
40 23 15
40 24 6
40 26 4
40 30 20
40 34 20
40 36 6
41 0 6
41 3 9
41 4 16
41 5 5
41 6 10
41 8 6
41 9 20
41 10 1
41 12 13
41 14 2
41 15 12
41 18 11
41 19 9
41 20 15
41 21 15
41 22 20
41 23 13
41 25 14
41 26 7
41 27 17
41 28 10
41 29 4
41 31 17
41 33 16
41 34 4
41 35 6
41 36 14
41 37 10
41 40 12
42 0 12
42 1 12
42 2 11
42 3 16
42 6 2
42 7 18
42 9 10
42 10 11
42 12 8
42 17 13
42 18 3
42 21 18
42 23 9
42 24 11
42 26 5
42 28 13
42 32 10
42 35 18
42 37 9
42 39 6
42 40 17
42 41 17
43 0 4
43 2 1
43 3 6
43 4 3
43 5 11
43 7 9
43 8 19
43 9 10
43 10 15
43 11 6
43 12 16
43 13 3
43 15 15
43 16 10
43 17 3
43 19 11
43 20 19
43 21 7
43 22 14
43 23 17
43 24 10
43 25 15
43 26 17
43 30 18
43 31 6
43 34 9
43 36 19
43 37 10
43 38 19
44 0 18
44 1 17
44 2 12
44 3 11
44 4 2
44 5 8
44 6 10
44 10 2
44 11 4
44 12 7
44 13 3
44 16 20
44 17 8
44 18 4
44 19 9
44 20 9
44 22 2
44 24 3
44 25 6
44 28 3
44 29 8
44 33 8
44 34 13
44 38 8
44 41 14
44 42 14
44 43 20
45 0 16
45 1 20
45 3 19
45 4 10
45 6 17
45 8 4
45 9 8
45 12 6
45 13 1
45 14 5
45 15 11
45 16 9
45 18 12
45 19 17
45 20 14
45 22 6
45 23 17
45 24 19
45 28 19
45 30 7
45 31 13
45 33 12
45 34 4
45 36 13
45 38 19
45 39 4
45 40 18
45 41 1
45 42 16
46 0 12
46 1 2
46 2 1
46 3 14
46 5 12
46 7 15
46 9 13
46 12 1
46 14 4
46 17 5
46 18 14
46 19 20
46 23 8
46 24 5
46 26 4
46 27 3
46 28 19
46 30 11
46 31 6
46 33 5
46 36 11
46 37 19
46 39 6
46 40 16
46 42 1
46 43 7
46 45 5
47 0 9
47 7 19
47 9 5
47 11 13
47 12 15
47 14 13
47 16 1
47 17 15
47 18 6
47 21 16
47 22 19
47 23 4
47 25 7
47 26 6
47 27 9
47 28 16
47 29 17
47 30 11
47 32 2
47 33 1
47 35 13
47 37 14
47 40 7
47 42 6
48 0 7
48 1 6
48 3 9
48 5 17
48 6 18
48 7 13
48 10 11
48 11 6
48 15 12
48 16 1
48 17 3
48 19 17
48 22 8
48 26 6
48 30 2
48 32 9
48 34 6
48 35 15
48 36 1
48 37 6
48 38 19
48 39 2
48 43 19
48 45 12
48 46 11
49 0 4
49 3 13
49 4 18
49 5 7
49 6 17
49 7 8
49 10 14
49 13 1
49 14 8
49 16 17
49 18 7
49 19 13
49 20 12
49 23 8
49 24 18
49 26 8
49 27 4
49 32 1
49 34 18
49 36 17
49 37 18
49 38 8
49 40 19
49 41 7
49 43 17
49 45 2
49 46 20
49 48 18
